letting n =  10
letting blocks =  [[1, 2], [1, 6], [1, 7], [1, 10], [2, 1], [2, 6], [2, 10], [3, 2], [3, 7], [3, 8], [4, 3], [4, 5], [4, 7], [4, 8], [4, 9], [4, 10], [5, 3], [5, 4], [5, 5], [5, 6], [5, 9], [5, 10], [6, 1], [6, 2], [6, 5], [7, 7], [7, 9], [7, 10], [8, 1], [8, 2], [8, 6], [8, 7], [9, 1], [9, 2], [9, 4], [9, 5], [9, 6], [9, 9], [10, 6], [10, 8]]
